30000
4
19
31
51
69
12
14
17
20
23
45
48
66
74
79
86
89
93
2
8
13
22
24
28
29
34
42
44
46
49
54
67
68
75
88
90
94
100
3
27
32
36
39
40
43
52
55
57
58
61
63
64
65
71
77
78
81
82
87
97
99
1
6
15
16
26
33
35
38
41
53
76
84
85
92
98
5
7
9
30
56
62
70
73
80
91
95
96
11
21
25
50
59
72
10
18
37
47
60
83
